(set-info :smt-lib-version 2.6)
(set-info :category "crafted")
(set-logic QF_FF)
(define-sort FF0 () (_ FiniteField 52435875175126190479447740508185965837690552500527637822603658699938581184513))
(declare-fun mul_n38_alt () FF0)
(declare-fun x18_n20_alt () FF0)
(declare-fun mul_n37_alt () FF0)
(declare-fun x17_n11_alt () FF0)
(declare-fun mul_n36_alt () FF0)
(declare-fun x16_n3_alt () FF0)
(declare-fun mul_n35_alt () FF0)
(declare-fun x15_n15_alt () FF0)
(declare-fun mul_n34_alt () FF0)
(declare-fun x14_n6_alt () FF0)
(declare-fun mul_n33_alt () FF0)
(declare-fun x13_n8_alt () FF0)
(declare-fun mul_n32_alt () FF0)
(declare-fun x12_n0_alt () FF0)
(declare-fun mul_n31_alt () FF0)
(declare-fun x11_n12_alt () FF0)
(declare-fun mul_n30_alt () FF0)
(declare-fun x10_n4_alt () FF0)
(declare-fun mul_n29_alt () FF0)
(declare-fun x9_n9_alt () FF0)
(declare-fun mul_n28_alt () FF0)
(declare-fun x8_n1_alt () FF0)
(declare-fun mul_n27_alt () FF0)
(declare-fun x7_n14_alt () FF0)
(declare-fun mul_n26_alt () FF0)
(declare-fun x6_n17_alt () FF0)
(declare-fun mul_n25_alt () FF0)
(declare-fun x5_n10_alt () FF0)
(declare-fun mul_n24_alt () FF0)
(declare-fun x4_n2_alt () FF0)
(declare-fun mul_n23_alt () FF0)
(declare-fun x3_n7_alt () FF0)
(declare-fun mul_n22_alt () FF0)
(declare-fun x2_n19_alt () FF0)
(declare-fun mul_n21_alt () FF0)
(declare-fun x1_n13_alt () FF0)
(declare-fun x0_n5_alt () FF0)
(declare-fun mul_n38 () FF0)
(declare-fun x18_n20 () FF0)
(declare-fun mul_n37 () FF0)
(declare-fun x17_n11 () FF0)
(declare-fun mul_n36 () FF0)
(declare-fun x16_n3 () FF0)
(declare-fun mul_n35 () FF0)
(declare-fun x15_n15 () FF0)
(declare-fun mul_n34 () FF0)
(declare-fun x14_n6 () FF0)
(declare-fun mul_n33 () FF0)
(declare-fun x13_n8 () FF0)
(declare-fun mul_n32 () FF0)
(declare-fun x12_n0 () FF0)
(declare-fun mul_n31 () FF0)
(declare-fun x11_n12 () FF0)
(declare-fun mul_n30 () FF0)
(declare-fun x10_n4 () FF0)
(declare-fun mul_n29 () FF0)
(declare-fun x9_n9 () FF0)
(declare-fun mul_n28 () FF0)
(declare-fun x8_n1 () FF0)
(declare-fun mul_n27 () FF0)
(declare-fun x7_n14 () FF0)
(declare-fun mul_n26 () FF0)
(declare-fun x6_n17 () FF0)
(declare-fun mul_n25 () FF0)
(declare-fun x5_n10 () FF0)
(declare-fun mul_n24 () FF0)
(declare-fun x4_n2 () FF0)
(declare-fun mul_n23 () FF0)
(declare-fun x3_n7 () FF0)
(declare-fun mul_n22 () FF0)
(declare-fun x2_n19 () FF0)
(declare-fun mul_n21 () FF0)
(declare-fun x1_n13 () FF0)
(declare-fun x0_n5 () FF0)
(declare-fun return_n18_alt () FF0)
(declare-fun return_n18 () FF0)
(declare-fun x19_n16_alt () FF0)
(declare-fun x19_n16 () FF0)
(assert 
  (let ((let0 mul_n38_alt))
  (let ((let1 x18_n20_alt))
  (let ((let2 mul_n37_alt))
  (let ((let3 (ff.mul let2 let1)))
  (let ((let4 (= let3 let0)))
  (let ((let5 x17_n11_alt))
  (let ((let6 mul_n36_alt))
  (let ((let7 (ff.mul let6 let5)))
  (let ((let8 (= let7 let2)))
  (let ((let9 x16_n3_alt))
  (let ((let10 mul_n35_alt))
  (let ((let11 (ff.mul let10 let9)))
  (let ((let12 (= let11 let6)))
  (let ((let13 x15_n15_alt))
  (let ((let14 mul_n34_alt))
  (let ((let15 (ff.mul let14 let13)))
  (let ((let16 (= let15 let10)))
  (let ((let17 x14_n6_alt))
  (let ((let18 mul_n33_alt))
  (let ((let19 (ff.mul let18 let17)))
  (let ((let20 (= let19 let14)))
  (let ((let21 x13_n8_alt))
  (let ((let22 mul_n32_alt))
  (let ((let23 (ff.mul let22 let21)))
  (let ((let24 (= let23 let18)))
  (let ((let25 x12_n0_alt))
  (let ((let26 mul_n31_alt))
  (let ((let27 (ff.mul let26 let25)))
  (let ((let28 (= let27 let22)))
  (let ((let29 x11_n12_alt))
  (let ((let30 mul_n30_alt))
  (let ((let31 (ff.mul let30 let29)))
  (let ((let32 (= let31 let26)))
  (let ((let33 x10_n4_alt))
  (let ((let34 mul_n29_alt))
  (let ((let35 (ff.mul let34 let33)))
  (let ((let36 (= let35 let30)))
  (let ((let37 x9_n9_alt))
  (let ((let38 mul_n28_alt))
  (let ((let39 (ff.mul let38 let37)))
  (let ((let40 (= let39 let34)))
  (let ((let41 x8_n1_alt))
  (let ((let42 mul_n27_alt))
  (let ((let43 (ff.mul let42 let41)))
  (let ((let44 (= let43 let38)))
  (let ((let45 x7_n14_alt))
  (let ((let46 mul_n26_alt))
  (let ((let47 (ff.mul let46 let45)))
  (let ((let48 (= let47 let42)))
  (let ((let49 x6_n17_alt))
  (let ((let50 mul_n25_alt))
  (let ((let51 (ff.mul let50 let49)))
  (let ((let52 (= let51 let46)))
  (let ((let53 x5_n10_alt))
  (let ((let54 mul_n24_alt))
  (let ((let55 (ff.mul let54 let53)))
  (let ((let56 (= let55 let50)))
  (let ((let57 x4_n2_alt))
  (let ((let58 mul_n23_alt))
  (let ((let59 (ff.mul let58 let57)))
  (let ((let60 (= let59 let54)))
  (let ((let61 x3_n7_alt))
  (let ((let62 mul_n22_alt))
  (let ((let63 (ff.mul let62 let61)))
  (let ((let64 (= let63 let58)))
  (let ((let65 x2_n19_alt))
  (let ((let66 mul_n21_alt))
  (let ((let67 (ff.mul let66 let65)))
  (let ((let68 (= let67 let62)))
  (let ((let69 x1_n13_alt))
  (let ((let70 x0_n5_alt))
  (let ((let71 (ff.mul let70 let69)))
  (let ((let72 (= let71 let66)))
  (let ((let73 (and let72 let68 let64 let60 let56 let52 let48 let44 let40 let36 let32 let28 let24 let20 let16 let12 let8 let4)))
  (let ((let74 mul_n38))
  (let ((let75 x18_n20))
  (let ((let76 mul_n37))
  (let ((let77 (ff.mul let76 let75)))
  (let ((let78 (= let77 let74)))
  (let ((let79 x17_n11))
  (let ((let80 mul_n36))
  (let ((let81 (ff.mul let80 let79)))
  (let ((let82 (= let81 let76)))
  (let ((let83 x16_n3))
  (let ((let84 mul_n35))
  (let ((let85 (ff.mul let84 let83)))
  (let ((let86 (= let85 let80)))
  (let ((let87 x15_n15))
  (let ((let88 mul_n34))
  (let ((let89 (ff.mul let88 let87)))
  (let ((let90 (= let89 let84)))
  (let ((let91 x14_n6))
  (let ((let92 mul_n33))
  (let ((let93 (ff.mul let92 let91)))
  (let ((let94 (= let93 let88)))
  (let ((let95 x13_n8))
  (let ((let96 mul_n32))
  (let ((let97 (ff.mul let96 let95)))
  (let ((let98 (= let97 let92)))
  (let ((let99 x12_n0))
  (let ((let100 mul_n31))
  (let ((let101 (ff.mul let100 let99)))
  (let ((let102 (= let101 let96)))
  (let ((let103 x11_n12))
  (let ((let104 mul_n30))
  (let ((let105 (ff.mul let104 let103)))
  (let ((let106 (= let105 let100)))
  (let ((let107 x10_n4))
  (let ((let108 mul_n29))
  (let ((let109 (ff.mul let108 let107)))
  (let ((let110 (= let109 let104)))
  (let ((let111 x9_n9))
  (let ((let112 mul_n28))
  (let ((let113 (ff.mul let112 let111)))
  (let ((let114 (= let113 let108)))
  (let ((let115 x8_n1))
  (let ((let116 mul_n27))
  (let ((let117 (ff.mul let116 let115)))
  (let ((let118 (= let117 let112)))
  (let ((let119 x7_n14))
  (let ((let120 mul_n26))
  (let ((let121 (ff.mul let120 let119)))
  (let ((let122 (= let121 let116)))
  (let ((let123 x6_n17))
  (let ((let124 mul_n25))
  (let ((let125 (ff.mul let124 let123)))
  (let ((let126 (= let125 let120)))
  (let ((let127 x5_n10))
  (let ((let128 mul_n24))
  (let ((let129 (ff.mul let128 let127)))
  (let ((let130 (= let129 let124)))
  (let ((let131 x4_n2))
  (let ((let132 mul_n23))
  (let ((let133 (ff.mul let132 let131)))
  (let ((let134 (= let133 let128)))
  (let ((let135 x3_n7))
  (let ((let136 mul_n22))
  (let ((let137 (ff.mul let136 let135)))
  (let ((let138 (= let137 let132)))
  (let ((let139 x2_n19))
  (let ((let140 mul_n21))
  (let ((let141 (ff.mul let140 let139)))
  (let ((let142 (= let141 let136)))
  (let ((let143 x1_n13))
  (let ((let144 x0_n5))
  (let ((let145 (ff.mul let144 let143)))
  (let ((let146 (= let145 let140)))
  (let ((let147 (and let146 let142 let138 let134 let130 let126 let122 let118 let114 let110 let106 let102 let98 let94 let90 let86 let82 let78)))
  (let ((let148 return_n18_alt))
  (let ((let149 return_n18))
  (let ((let150 (= let149 let148)))
  (let ((let151 (not let150)))
  (let ((let152 (= let115 let41)))
  (let ((let153 (= let127 let53)))
  (let ((let154 (= let111 let37)))
  (let ((let155 x19_n16_alt))
  (let ((let156 x19_n16))
  (let ((let157 (= let156 let155)))
  (let ((let158 (= let95 let21)))
  (let ((let159 (= let119 let45)))
  (let ((let160 (= let131 let57)))
  (let ((let161 (= let91 let17)))
  (let ((let162 (= let99 let25)))
  (let ((let163 (= let83 let9)))
  (let ((let164 (= let139 let65)))
  (let ((let165 (= let144 let70)))
  (let ((let166 (= let103 let29)))
  (let ((let167 (= let79 let5)))
  (let ((let168 (= let87 let13)))
  (let ((let169 (= let75 let1)))
  (let ((let170 (= let135 let61)))
  (let ((let171 (= let107 let33)))
  (let ((let172 (= let123 let49)))
  (let ((let173 (= let143 let69)))
  (let ((let174 (and let173 let172 let171 let170 let169 let168 let167 let166 let165 let164 let163 let162 let161 let160 let159 let158 let157 let154 let153 let152)))
  (let ((let175 (and let174 let151 let147 let73)))
  let175
))))))))))))))))))))))))))))))))))))))))))))))))))))))))))))))))))))))))))))))))))))))))))))))))))))))))))))))))))))))))))))))))))))))))))))))))))))))))))))))))))))))))))))))))
)
(check-sat)
